nNurses = 184;
nHours = 39;
minHours = 6;
maxHours = 10;
maxConsec = 9;
maxPresence = 35;
demand = [29, 33, 34, 36, 33, 38, 38, 40, 37, 35, 35, 32, 28, 28, 24, 29, 25, 24, 29, 25, 25, 25, 28, 32, 30, 28, 29, 24, 19, 19, 16, 17, 17, 21, 23, 27, 26, 31, 32];
